NAME: ./prFile/tspFile/tsp_file91.tsp
COMMENT: TSP file generated by Python
TYPE: TSP
DIMENSION: 40
EDGE_WEIGHT_TYPE: EUC_2D
NODE_COORD_SECTION
1 29 26
2 18 87
3 89 88
4 11 57
5 96 13
6 65 40
7 80 59
8 42 57
9 4 38
10 20 90
11 86 47
12 67 28
13 67 76
14 90 67
15 75 90
16 49 36
17 45 55
18 94 82
19 36 27
20 54 93
21 48 62
22 2 96
23 74 5
24 76 77
25 7 37
26 27 43
27 49 61
28 33 5
29 47 27
30 17 8
31 59 70
32 56 66
33 52 10
34 86 32
35 15 28
36 11 92
37 71 11
38 6 45
39 26 97
40 30 71
EOF
